Route #1: 27 24 10
Route #2: 7
Route #3: 18
Route #4: 26 25 13 3 17 23 21
Route #5: 15 1 2 20
Route #6: 31 28 6
Route #7: 19 11 9 8
Route #8: 4 22
Route #9: 30
Route #10: 16 29
Route #11: 14
Route #12: 12
Route #13: 5

Cost: 2388.7834023698438
